c instance by G2
c solution = 101111110
c Known solution cost is 383 
p cnf 9 30
w 55 9 8 17 4 86 19 93 92
-9 1 -8 0
4 8 9 0
5 -4 2 0
9 5 -4 0
3 2 -8 0
7 -9 -4 0
-7 -2 -4 0
-9 6 -5 0
-3 7 -9 0
7 8 -6 0
-7 -5 1 0
9 -8 4 0
9 -7 1 0
-5 8 3 0
-9 -3 -7 0
-3 1 -5 0
3 -5 -2 0
2 -6 7 0
8 4 1 0
6 -9 -4 0
5 -6 -2 0
-8 -5 4 0
-6 8 -3 0
5 -4 -8 0
-8 1 2 0
5 -1 -2 0
2 6 -3 0
-9 8 -7 0
-1 3 9 0
-9 2 -6 0
